Minimize
Subject To
c0: x1 = 1
c1: x4 = 1
c2: x2 = 1
c3: x5 = 1
c4: x8 = 1
c5: x3 = 1
c6: x6 = 1
c7: x7 = 1
c8: x9 = 1

c9: x4 - x1 >= 1
c10: x5 - x2 >= 1
c11: x8 - x2 >= 1
c12: x8 - x4 >= 1
c13: x6 - x3 >= 1
c14: x7 - x4 >= 1
c15: x9 - x8 >= 1
c16: x9 - x5 >= 1

i0: x1 >= 0
i1: x4 >= 0
i2: x2 >= 0
i3: x5 >= 0
i4: x8 >= 0
i5: x3 >= 0
i6: x6 >= 0
i7: x7 >= 0
i8: x9 >= 0
i9: x-1 >= 0
